<number of tasks>
20

<cycle time>
1000

<order strength>
0,253


<task times>
1 557
2 471
3 378
4 498
5 615
6 646
7 342
8 615
9 379
10 515
11 397
12 543
13 415
14 632
15 442
16 488
17 485
18 320
19 341
20 430

<precedence relations>
1,3
2,4
2,5
2,6
3,8
4,7
6,9
7,11
8,12
9,10
9,13
9,14
9,15
10,16
11,18
12,17
13,19
14,20

<end>
